#######################################
### Exact MIP solver for the HHCRSP ###
#######################################
-- Instance file: new-instances/HHCRSP_300_60_83_1.2_C_RC.txt
-- Max threads: 4
-- Time limit: 999999 seconds
-- Use initial solution: No
Trivial flow violations prevented generating 1192741 variables.
Version identifier: 20.1.0.0 | 2020-11-10 | 9bedb6d68
CPXPARAM_Threads                                 4
CPXPARAM_TimeLimit                               999999
Parallel mode: deterministic, using up to 4 threads for concurrent optimization:
 * Starting dual Simplex on 1 thread...
 * Starting Barrier on 3 threads...
Tried aggregator 1 time.
LP Presolve eliminated 49674 rows and 12383 columns.
Reduced LP has 1407052 rows, 1334112 columns, and 33793369 nonzeros.
Presolve time = 41.26 sec. (7339.75 ticks)
Symmetry aggregator did 2360607 additional substitutions.

Iteration log . . .
Iteration:     1   Dual objective     =             0.000000
Iteration:  1330   Dual objective     =           373.666667

Dual crossover.
  Dual:  Fixing 1754 variables.
     1753 DMoves:  Infeasibility  1.37434508e-12  Objective  3.74000000e+02
        0 DMoves:  Infeasibility  1.09839915e-12  Objective  3.74000000e+02
  Dual:  Pushed 33, exchanged 1721.
  Primal:  Fixing 1665 variables.
     1664 PMoves:  Infeasibility  8.32667268e-17  Objective  3.74000000e+02
        0 PMoves:  Infeasibility  8.32667268e-17  Objective  3.74000000e+02
  Primal:  Pushed 1521, exchanged 144.

Dual simplex solved model.


Solution status from MIP model:
-- Processing time: 66.695 sec.
-- Memory used: 1229.92 MB
-- Best bound: inf
-- Obj value: 374
-- Gap: inf%
-- Total distance: 1122
-- Total tardiness: 0
-- Largest tardiness: 0
